60

  0    1    2    3    4    5    6    7    8    9    1    2    3    4    5    6    7    8    9   10    2    3    4    5    6    7    8    9   10   11    3    4    5    6    7    8    9   10   11   12    4    5    6    7    8    9   10   11   12   13    5    6    7    8    9   10   11   12   13   14  
  1    0    1    2    3    4    5    6    7    8    2    1    2    3    4    5    6    7    8    9    3    2    3    4    5    6    7    8    9   10    4    3    4    5    6    7    8    9   10   11    5    4    5    6    7    8    9   10   11   12    6    5    6    7    8    9   10   11   12   13  
  2    1    0    1    2    3    4    5    6    7    3    2    1    2    3    4    5    6    7    8    4    3    2    3    4    5    6    7    8    9    5    4    3    4    5    6    7    8    9   10    6    5    4    5    6    7    8    9   10   11    7    6    5    6    7    8    9   10   11   12  
  3    2    1    0    1    2    3    4    5    6    4    3    2    1    2    3    4    5    6    7    5    4    3    2    3    4    5    6    7    8    6    5    4    3    4    5    6    7    8    9    7    6    5    4    5    6    7    8    9   10    8    7    6    5    6    7    8    9   10   11  
  4    3    2    1    0    1    2    3    4    5    5    4    3    2    1    2    3    4    5    6    6    5    4    3    2    3    4    5    6    7    7    6    5    4    3    4    5    6    7    8    8    7    6    5    4    5    6    7    8    9    9    8    7    6    5    6    7    8    9   10  
  5    4    3    2    1    0    1    2    3    4    6    5    4    3    2    1    2    3    4    5    7    6    5    4    3    2    3    4    5    6    8    7    6    5    4    3    4    5    6    7    9    8    7    6    5    4    5    6    7    8   10    9    8    7    6    5    6    7    8    9  
  6    5    4    3    2    1    0    1    2    3    7    6    5    4    3    2    1    2    3    4    8    7    6    5    4    3    2    3    4    5    9    8    7    6    5    4    3    4    5    6   10    9    8    7    6    5    4    5    6    7   11   10    9    8    7    6    5    6    7    8  
  7    6    5    4    3    2    1    0    1    2    8    7    6    5    4    3    2    1    2    3    9    8    7    6    5    4    3    2    3    4   10    9    8    7    6    5    4    3    4    5   11   10    9    8    7    6    5    4    5    6   12   11   10    9    8    7    6    5    6    7  
  8    7    6    5    4    3    2    1    0    1    9    8    7    6    5    4    3    2    1    2   10    9    8    7    6    5    4    3    2    3   11   10    9    8    7    6    5    4    3    4   12   11   10    9    8    7    6    5    4    5   13   12   11   10    9    8    7    6    5    6  
  9    8    7    6    5    4    3    2    1    0   10    9    8    7    6    5    4    3    2    1   11   10    9    8    7    6    5    4    3    2   12   11   10    9    8    7    6    5    4    3   13   12   11   10    9    8    7    6    5    4   14   13   12   11   10    9    8    7    6    5  
  1    2    3    4    5    6    7    8    9   10    0    1    2    3    4    5    6    7    8    9    1    2    3    4    5    6    7    8    9   10    2    3    4    5    6    7    8    9   10   11    3    4    5    6    7    8    9   10   11   12    4    5    6    7    8    9   10   11   12   13  
  2    1    2    3    4    5    6    7    8    9    1    0    1    2    3    4    5    6    7    8    2    1    2    3    4    5    6    7    8    9    3    2    3    4    5    6    7    8    9   10    4    3    4    5    6    7    8    9   10   11    5    4    5    6    7    8    9   10   11   12  
  3    2    1    2    3    4    5    6    7    8    2    1    0    1    2    3    4    5    6    7    3    2    1    2    3    4    5    6    7    8    4    3    2    3    4    5    6    7    8    9    5    4    3    4    5    6    7    8    9   10    6    5    4    5    6    7    8    9   10   11  
  4    3    2    1    2    3    4    5    6    7    3    2    1    0    1    2    3    4    5    6    4    3    2    1    2    3    4    5    6    7    5    4    3    2    3    4    5    6    7    8    6    5    4    3    4    5    6    7    8    9    7    6    5    4    5    6    7    8    9   10  
  5    4    3    2    1    2    3    4    5    6    4    3    2    1    0    1    2    3    4    5    5    4    3    2    1    2    3    4    5    6    6    5    4    3    2    3    4    5    6    7    7    6    5    4    3    4    5    6    7    8    8    7    6    5    4    5    6    7    8    9  
  6    5    4    3    2    1    2    3    4    5    5    4    3    2    1    0    1    2    3    4    6    5    4    3    2    1    2    3    4    5    7    6    5    4    3    2    3    4    5    6    8    7    6    5    4    3    4    5    6    7    9    8    7    6    5    4    5    6    7    8  
  7    6    5    4    3    2    1    2    3    4    6    5    4    3    2    1    0    1    2    3    7    6    5    4    3    2    1    2    3    4    8    7    6    5    4    3    2    3    4    5    9    8    7    6    5    4    3    4    5    6   10    9    8    7    6    5    4    5    6    7  
  8    7    6    5    4    3    2    1    2    3    7    6    5    4    3    2    1    0    1    2    8    7    6    5    4    3    2    1    2    3    9    8    7    6    5    4    3    2    3    4   10    9    8    7    6    5    4    3    4    5   11   10    9    8    7    6    5    4    5    6  
  9    8    7    6    5    4    3    2    1    2    8    7    6    5    4    3    2    1    0    1    9    8    7    6    5    4    3    2    1    2   10    9    8    7    6    5    4    3    2    3   11   10    9    8    7    6    5    4    3    4   12   11   10    9    8    7    6    5    4    5  
 10    9    8    7    6    5    4    3    2    1    9    8    7    6    5    4    3    2    1    0   10    9    8    7    6    5    4    3    2    1   11   10    9    8    7    6    5    4    3    2   12   11   10    9    8    7    6    5    4    3   13   12   11   10    9    8    7    6    5    4  
  2    3    4    5    6    7    8    9   10   11    1    2    3    4    5    6    7    8    9   10    0    1    2    3    4    5    6    7    8    9    1    2    3    4    5    6    7    8    9   10    2    3    4    5    6    7    8    9   10   11    3    4    5    6    7    8    9   10   11   12  
  3    2    3    4    5    6    7    8    9   10    2    1    2    3    4    5    6    7    8    9    1    0    1    2    3    4    5    6    7    8    2    1    2    3    4    5    6    7    8    9    3    2    3    4    5    6    7    8    9   10    4    3    4    5    6    7    8    9   10   11  
  4    3    2    3    4    5    6    7    8    9    3    2    1    2    3    4    5    6    7    8    2    1    0    1    2    3    4    5    6    7    3    2    1    2    3    4    5    6    7    8    4    3    2    3    4    5    6    7    8    9    5    4    3    4    5    6    7    8    9   10  
  5    4    3    2    3    4    5    6    7    8    4    3    2    1    2    3    4    5    6    7    3    2    1    0    1    2    3    4    5    6    4    3    2    1    2    3    4    5    6    7    5    4    3    2    3    4    5    6    7    8    6    5    4    3    4    5    6    7    8    9  
  6    5    4    3    2    3    4    5    6    7    5    4    3    2    1    2    3    4    5    6    4    3    2    1    0    1    2    3    4    5    5    4    3    2    1    2    3    4    5    6    6    5    4    3    2    3    4    5    6    7    7    6    5    4    3    4    5    6    7    8  
  7    6    5    4    3    2    3    4    5    6    6    5    4    3    2    1    2    3    4    5    5    4    3    2    1    0    1    2    3    4    6    5    4    3    2    1    2    3    4    5    7    6    5    4    3    2    3    4    5    6    8    7    6    5    4    3    4    5    6    7  
  8    7    6    5    4    3    2    3    4    5    7    6    5    4    3    2    1    2    3    4    6    5    4    3    2    1    0    1    2    3    7    6    5    4    3    2    1    2    3    4    8    7    6    5    4    3    2    3    4    5    9    8    7    6    5    4    3    4    5    6  
  9    8    7    6    5    4    3    2    3    4    8    7    6    5    4    3    2    1    2    3    7    6    5    4    3    2    1    0    1    2    8    7    6    5    4    3    2    1    2    3    9    8    7    6    5    4    3    2    3    4   10    9    8    7    6    5    4    3    4    5  
 10    9    8    7    6    5    4    3    2    3    9    8    7    6    5    4    3    2    1    2    8    7    6    5    4    3    2    1    0    1    9    8    7    6    5    4    3    2    1    2   10    9    8    7    6    5    4    3    2    3   11   10    9    8    7    6    5    4    3    4  
 11   10    9    8    7    6    5    4    3    2   10    9    8    7    6    5    4    3    2    1    9    8    7    6    5    4    3    2    1    0   10    9    8    7    6    5    4    3    2    1   11   10    9    8    7    6    5    4    3    2   12   11   10    9    8    7    6    5    4    3  
  3    4    5    6    7    8    9   10   11   12    2    3    4    5    6    7    8    9   10   11    1    2    3    4    5    6    7    8    9   10    0    1    2    3    4    5    6    7    8    9    1    2    3    4    5    6    7    8    9   10    2    3    4    5    6    7    8    9   10   11  
  4    3    4    5    6    7    8    9   10   11    3    2    3    4    5    6    7    8    9   10    2    1    2    3    4    5    6    7    8    9    1    0    1    2    3    4    5    6    7    8    2    1    2    3    4    5    6    7    8    9    3    2    3    4    5    6    7    8    9   10  
  5    4    3    4    5    6    7    8    9   10    4    3    2    3    4    5    6    7    8    9    3    2    1    2    3    4    5    6    7    8    2    1    0    1    2    3    4    5    6    7    3    2    1    2    3    4    5    6    7    8    4    3    2    3    4    5    6    7    8    9  
  6    5    4    3    4    5    6    7    8    9    5    4    3    2    3    4    5    6    7    8    4    3    2    1    2    3    4    5    6    7    3    2    1    0    1    2    3    4    5    6    4    3    2    1    2    3    4    5    6    7    5    4    3    2    3    4    5    6    7    8  
  7    6    5    4    3    4    5    6    7    8    6    5    4    3    2    3    4    5    6    7    5    4    3    2    1    2    3    4    5    6    4    3    2    1    0    1    2    3    4    5    5    4    3    2    1    2    3    4    5    6    6    5    4    3    2    3    4    5    6    7  
  8    7    6    5    4    3    4    5    6    7    7    6    5    4    3    2    3    4    5    6    6    5    4    3    2    1    2    3    4    5    5    4    3    2    1    0    1    2    3    4    6    5    4    3    2    1    2    3    4    5    7    6    5    4    3    2    3    4    5    6  
  9    8    7    6    5    4    3    4    5    6    8    7    6    5    4    3    2    3    4    5    7    6    5    4    3    2    1    2    3    4    6    5    4    3    2    1    0    1    2    3    7    6    5    4    3    2    1    2    3    4    8    7    6    5    4    3    2    3    4    5  
 10    9    8    7    6    5    4    3    4    5    9    8    7    6    5    4    3    2    3    4    8    7    6    5    4    3    2    1    2    3    7    6    5    4    3    2    1    0    1    2    8    7    6    5    4    3    2    1    2    3    9    8    7    6    5    4    3    2    3    4  
 11   10    9    8    7    6    5    4    3    4   10    9    8    7    6    5    4    3    2    3    9    8    7    6    5    4    3    2    1    2    8    7    6    5    4    3    2    1    0    1    9    8    7    6    5    4    3    2    1    2   10    9    8    7    6    5    4    3    2    3  
 12   11   10    9    8    7    6    5    4    3   11   10    9    8    7    6    5    4    3    2   10    9    8    7    6    5    4    3    2    1    9    8    7    6    5    4    3    2    1    0   10    9    8    7    6    5    4    3    2    1   11   10    9    8    7    6    5    4    3    2  
  4    5    6    7    8    9   10   11   12   13    3    4    5    6    7    8    9   10   11   12    2    3    4    5    6    7    8    9   10   11    1    2    3    4    5    6    7    8    9   10    0    1    2    3    4    5    6    7    8    9    1    2    3    4    5    6    7    8    9   10  
  5    4    5    6    7    8    9   10   11   12    4    3    4    5    6    7    8    9   10   11    3    2    3    4    5    6    7    8    9   10    2    1    2    3    4    5    6    7    8    9    1    0    1    2    3    4    5    6    7    8    2    1    2    3    4    5    6    7    8    9  
  6    5    4    5    6    7    8    9   10   11    5    4    3    4    5    6    7    8    9   10    4    3    2    3    4    5    6    7    8    9    3    2    1    2    3    4    5    6    7    8    2    1    0    1    2    3    4    5    6    7    3    2    1    2    3    4    5    6    7    8  
  7    6    5    4    5    6    7    8    9   10    6    5    4    3    4    5    6    7    8    9    5    4    3    2    3    4    5    6    7    8    4    3    2    1    2    3    4    5    6    7    3    2    1    0    1    2    3    4    5    6    4    3    2    1    2    3    4    5    6    7  
  8    7    6    5    4    5    6    7    8    9    7    6    5    4    3    4    5    6    7    8    6    5    4    3    2    3    4    5    6    7    5    4    3    2    1    2    3    4    5    6    4    3    2    1    0    1    2    3    4    5    5    4    3    2    1    2    3    4    5    6  
  9    8    7    6    5    4    5    6    7    8    8    7    6    5    4    3    4    5    6    7    7    6    5    4    3    2    3    4    5    6    6    5    4    3    2    1    2    3    4    5    5    4    3    2    1    0    1    2    3    4    6    5    4    3    2    1    2    3    4    5  
 10    9    8    7    6    5    4    5    6    7    9    8    7    6    5    4    3    4    5    6    8    7    6    5    4    3    2    3    4    5    7    6    5    4    3    2    1    2    3    4    6    5    4    3    2    1    0    1    2    3    7    6    5    4    3    2    1    2    3    4  
 11   10    9    8    7    6    5    4    5    6   10    9    8    7    6    5    4    3    4    5    9    8    7    6    5    4    3    2    3    4    8    7    6    5    4    3    2    1    2    3    7    6    5    4    3    2    1    0    1    2    8    7    6    5    4    3    2    1    2    3  
 12   11   10    9    8    7    6    5    4    5   11   10    9    8    7    6    5    4    3    4   10    9    8    7    6    5    4    3    2    3    9    8    7    6    5    4    3    2    1    2    8    7    6    5    4    3    2    1    0    1    9    8    7    6    5    4    3    2    1    2  
 13   12   11   10    9    8    7    6    5    4   12   11   10    9    8    7    6    5    4    3   11   10    9    8    7    6    5    4    3    2   10    9    8    7    6    5    4    3    2    1    9    8    7    6    5    4    3    2    1    0   10    9    8    7    6    5    4    3    2    1  
  5    6    7    8    9   10   11   12   13   14    4    5    6    7    8    9   10   11   12   13    3    4    5    6    7    8    9   10   11   12    2    3    4    5    6    7    8    9   10   11    1    2    3    4    5    6    7    8    9   10    0    1    2    3    4    5    6    7    8    9  
  6    5    6    7    8    9   10   11   12   13    5    4    5    6    7    8    9   10   11   12    4    3    4    5    6    7    8    9   10   11    3    2    3    4    5    6    7    8    9   10    2    1    2    3    4    5    6    7    8    9    1    0    1    2    3    4    5    6    7    8  
  7    6    5    6    7    8    9   10   11   12    6    5    4    5    6    7    8    9   10   11    5    4    3    4    5    6    7    8    9   10    4    3    2    3    4    5    6    7    8    9    3    2    1    2    3    4    5    6    7    8    2    1    0    1    2    3    4    5    6    7  
  8    7    6    5    6    7    8    9   10   11    7    6    5    4    5    6    7    8    9   10    6    5    4    3    4    5    6    7    8    9    5    4    3    2    3    4    5    6    7    8    4    3    2    1    2    3    4    5    6    7    3    2    1    0    1    2    3    4    5    6  
  9    8    7    6    5    6    7    8    9   10    8    7    6    5    4    5    6    7    8    9    7    6    5    4    3    4    5    6    7    8    6    5    4    3    2    3    4    5    6    7    5    4    3    2    1    2    3    4    5    6    4    3    2    1    0    1    2    3    4    5  
 10    9    8    7    6    5    6    7    8    9    9    8    7    6    5    4    5    6    7    8    8    7    6    5    4    3    4    5    6    7    7    6    5    4    3    2    3    4    5    6    6    5    4    3    2    1    2    3    4    5    5    4    3    2    1    0    1    2    3    4  
 11   10    9    8    7    6    5    6    7    8   10    9    8    7    6    5    4    5    6    7    9    8    7    6    5    4    3    4    5    6    8    7    6    5    4    3    2    3    4    5    7    6    5    4    3    2    1    2    3    4    6    5    4    3    2    1    0    1    2    3  
 12   11   10    9    8    7    6    5    6    7   11   10    9    8    7    6    5    4    5    6   10    9    8    7    6    5    4    3    4    5    9    8    7    6    5    4    3    2    3    4    8    7    6    5    4    3    2    1    2    3    7    6    5    4    3    2    1    0    1    2  
 13   12   11   10    9    8    7    6    5    6   12   11   10    9    8    7    6    5    4    5   11   10    9    8    7    6    5    4    3    4   10    9    8    7    6    5    4    3    2    3    9    8    7    6    5    4    3    2    1    2    8    7    6    5    4    3    2    1    0    1  
 14   13   12   11   10    9    8    7    6    5   13   12   11   10    9    8    7    6    5    4   12   11   10    9    8    7    6    5    4    3   11   10    9    8    7    6    5    4    3    2   10    9    8    7    6    5    4    3    2    1    9    8    7    6    5    4    3    2    1    0  

  0   16    1    0    0    1   19   95   17   31   13    0    0    8    5    0    0   10   99    2    0    0    4   92    0   11    2    0   14   69   83    1    1   13    0    1   64   45    1   87    0    5    0    1   17    1   10    0    0   69    1    8    8   84    3    0    0    3    1    1  
 17    0   19    0    0   28    0    7    0    0    0    1    1    2    2    0    4    1   17    0   17   89    0   12    1    0   54    0    3    9   57    9    2    4   15   87    1    1   80    1    1   39    1    1   41    9    0   96    3    1    3    2    2   97   73    1    0    0   19    2  
  1    1    0    1    0    2    0   58    0    0    0    3    1   59   51   16    1   12   47    0    1    0    0   55    0    0    7   12    1   34   13    0   18    3   38   70    4   11    1    1    1   50   21    1    1    1    0   22   13   12   76    1    7    0    0    5    0    0   14   25  
  0    0   22    0    0    0    0    0    0    0    0    0   67   57    7    1   79    0    0    0   39    0    0    0    0    0    0    2    0    0   59    0    0    0    3   60    0    0    0    0    1    0   94    0   62    0    0    1    0    0    0   29    7    0    0   33    0    0    0    0  
  0    0    0    0    0    0    0    0   25    0   31    0   77    0    1    4    8   43    0    0    0    0    0    0    0   45   15    0    1    1    0    0    0    0    0   89   37    7    0    0    1    0    0    6    1    0   77    0    0    0    0    0    1    0    0    0    0    0    8   25  
 74   59    1    0    0    0    0    3    0    0    0    4    0   34   12    0    0    1   35    0    8   35    1    1    1    0    0    0    0    0   37   11    1   28   10    2    0    0   59    6   11    0    0   64    1    1    0   39   33    1   19    1    0    8    0    2   78    0    0    0  
  1    0    0    0    0    0    0   95    0   20    0    0    0    0    0    0    0    0    0    1    0    0    2    1    0   59    0    0   59    0    0    7   49    0    0    0    0    0    8   11    0    7    0    0    0    0    0    0    0    0    4    0    0    6   87    0    0   68    0   97  
  1   15    0    0    0   10    4    0    0    1    0    0    0   38    0    0    0    1   10    0    0    6    0   33   28    0    0    0    0    0    0   42    1   32    0    0    0    0    7   51    0    2    0   70    0    4    0    0    1    3   87    0    0    3    3    1    0   91    0    0  
  1    0    0    0    5    0    0    0    0    0   15    0    0    0    0    0    0   16    0    0    0    0    8    0    0   14    1    0    2   36    0    1    0   49    0    4    1    2    0    0    0   36    0    0    0    0    6    0    0    0    1    0   11    0    1    0    0    0   57   31  
 37    0    0    0    0    0   36    1    0    0    0    0    0    0    0    0    0    0    0   67    0    0    5   48    0   44    0    0    0    0    0   70    4    0    0    4    0    0    1    2    0    1   87   18    0    0    0    0    0    0   46    0    0   39   27    0    0   93    0    0  
  1    0    9    0    2    0    0    0    4    0    0    0    0    0    0    0    0   13    0    0    0    0    2    0    0   65   48    0    1   13    0    2    0    0    0   20    1   91    0    0    0   56    0    0    0    0    1    0    0    0   83    0   25    0   16    0    0    0    1    1  
  1    1   95    0    0    4    0    0    0    0    0    0    0    7   21    0    0    0    1    0   98   45    0    1    3    0    0    0    0    0    2    0   51   26    1    0    0    0    0    0   76    0    0    2   97    7    0    1    9   45    0    3   23    0    0   52    3    0    0    0  
  0    1    1    4    1    0    0    0    0   21    0    0    0    4    6   50    2   27    0    0   96    0    0    0    0   29    2    7   15   96    1    0    0    0    4   66    7    1    0    0   49    1    1    0   36    1    0    0    0    1    0   18    1    0    0    1    0    0    2    0  
  1    1   55    1    0    1    0    1    0    0    0    1   76    0   87    8   50   55   12    0   25    2    0   14   52    0   15    7    0    0   71    0    1   50   16    1    1    0   29    1   14    2    1    5   81    5    0   54    1    1    1   32    9    0    0   26    0    0    1    0  
  8    1    1    1   70   11    0    0    0    0    0   71    1    8    0    1    4    1    1    0    4    0    0    0    0    0   15    1    1   31   43   57    0    0    1    1   10   24    0    0   36    0    2   12   86    2    0    1   46    5    1   74    1    0    0    1    0    0   16    0  
  0    0    3   30    1    0    0    0    0    0    0    0   10    1   59    0   52   42    0    0    7    0    0    0    0    0    5   84    0    0   28    0   66   48   82   29   54   57    0    0    1    0   40    0   80    0    0    0    0    0    0   25    1    0    0   73    0    0    2    0  
  0    1   45    1   87    0    0    0    0    0    0    0   98    2   41   49    0   35    0    0   45    0    0    0    0    1   67    2   70    1    8    0    0    0    2   79   88    1    0    0   62    0    1    1    1    0    0   25    0    1    1    1    1    0    0    1    0    0    1    0  
  1    4   57    0    3    5    0    0    1    0   47    0   17    3   40    1   46    0    5   77    4    0    1   35    0    1   65    0    3    1    4   30   13    0   76   10   35   87    3    1   99   62    0    2    1   13   87    0    0   68   59   61    1   11    3    0    0    0   11   13  
  3    9    1    0    0   97    0   15    0    0    0   10    0    1   80    0    0    2    0    0   87    1    0   11   97    0    0    0    0    0   29    1    1    1    3    3    0    0    1    2   12    1    0    2    1    6    0   62    1   25    1    1    0   11    0   27   47   22    0    0  
  1    0    0    0    0    0   38    0    0   29    0    0    0    0    0    0    0    0    0    0    0    0    9    0    0    0    0    0    0    0    0   18    0    0    0    0    0    0    1    4    0   10    0    0    0    0    0    0    0    0    0    0    0    1    2    0    0    1    0    0  
  0   13    1   15    0    4    0    0    0    0    0    2   49   29    1    1    1    6   91    0    0    0    0    0    0    0    7   22    0    0    1    4    0    0   34    1   78    4    0    0    2    0   43    0    1    0    0    6    1    1    0    5    1    0    0    3    0    0    6    0  
  0    3    0    0    0   23    0   30    0    0    0   69    0    1    0    0    0    0    1    0    0    0    0   11    1    0    0   35    0    0    0    0   25    6    0    0    0    0    1   24    0    0    0    1    0    1    0    0   21   23   75    0    0    1    0    0   57    3    0    0  
 18    0    0    0    0    0    1    0    4    1    1    0    0    0    0    0    0    3    0    8    0    0    0    0    0    0    0    0   63   10    0    4    0    0    0    0    0    0    1    1    0   14    0    0    0    0    4    0    0    0   14    0    0    3    1    0    0    4   55   36  
  1   72    1    0    0   33   92   14    0   20    0   88    0    2    2    0    0   71   35    0    0    1    0    0   96    0    0    0    0    0    1   29    9   32   27    0    0    0    1   11    0    1    0    1    0    1    0    0    3    1   14   11    0    1    7   16   79   89    0    1  
  0    3    0    0    0   41    0    1    0    0   23   41    0   81    0    0    0    0    1    0    0    1    0    1    0    0    0    0    0    0    0    0   17   85   38    0    0    0   89    0    0    0    0    1    0   24    0   65   95   20    0    0    0    0    0    0    3    0    0    0  
  1    0    0    0    1    0    0    0    1    0   45    0   55    0    0    0    1   19    0    0    0    0    0    0    0    0    1    0    7    2    0    0    0    0    0    3   23   29    1    0    0    0    0    0    0    0   12    0    0    0    0    0   35    0    0    0    0    0    1   43  
  5    6    1    0   28    0    0    0   49    0    1    0  100   95   59   25   24   80    0    0    3    0    0    0    0   51    0   14   71    2   37    1    0    0    1   45    1    1    0   25   20    3    1    0   73    0    1    4    0   10   23    9    1    0    0    2    0    0    1    1  
  0    0    1    2    0    0    0    0    0    0    0    0   91    6    1   91    1    0    0    0   83    0    0    0    0    0    8    0    0    0    3    0    0    0   37    1    1    1    0    0   26    0   99    0    8    0    0    0    0    0    0    1    2    0    0    1    0    0   88    0  
  2   14    1    0    5    0    1    0    1    0    2    0    1    0    3    0    1    1    0    0    0    0   80    0    0   56    1    0    0   70    9   16    0    0    0   58    1   25    9    5    0    5    0    0   18    0   55    0    0    0    1    0    1   13    6    0    0    0    1   66  
  1   62   31    0    1    0    0    0   14   30    7    0    7    0    2    0   19    1    0    0    0    0   78    0    0   15   60    0    2    0    3   35    0    0    0    1    1   83    5    0    1   17    0    0    1    0   42    1    0    0   65    8   49    0   14    0    0    0   75    1  
  1   36    7   74    0    2    0    0    0    0    0    1    1    1    1    2    1   14   68    0   11    0    0   60    0    0   34    1   23   14    0    0    1    1    2    1   90    5    0   88    1    1    7   78   31   48    0   13   64   65    1   85    1    0    0   57    0    0   32    0  
 12   20    0    0    0    0    2    1   81   92   11    0    0    0    0    0    0   11    5   51    0    0   91    1    0    0   52    0    1    2    0    0   34    0    0    0    0    0    1    1    0    1    0    1   44    1    1    0    0    0   25    0    0    1   41    0    0    1    1    1  
 56    3    1    0    0    6    1    1    0    1    0    1    0   67    0    0    0   79    1    0    0    1    0   37    3   34    0    0    0    0    9    1    0    6    2    0    0    0   24   32    0    1    0   19    0   52    0   39    1   30   72    0    0   86    4    0    0   49    0    0  
  1    1   27    0    0   23    0   79    0    0    0    8    0    2    0    0    0    0   32    0    0    1    0   74    7    0    0    0    0    0    2    0    1    0   22    0    0    0    1   79    0    1    0    1    0    5    0    1   76    8   50   27    0    1    0    0   91    1    0    0  
  0    1    1   23    0   68    0    0    0    0   81    2    2   64    1    2   36    1    3    0    4    0    0    8   49    0    1   33    0    0   15    0    1   62    0    1    6    0   43    0   14    0    1   54   86    2    0   24    3    1    2   44   79    0    0    9    0    0    1    0  
 67    5    2   38   85   24    0    0   17    0   83   27    7   59    1   29    4   16   41    0   12   15    0   52    0   46    4    7    2   32   27    0    0    0    1    0    1   56   40    1    7    5   24    1   35   12   36    0    0   22    1   56    7    0    0   17    0    0    5    2  
 69   28    1    0    1    0    0    0    1    0    1    0   12   14   97   38   20   20    0    0   19    0    0   61    0   15    8   17    1    1    8    0    0    0    6   15    0   15    0   27   21   18    7    0   28    0    7    0    0    1   47   26    1    0    0    8    0    0    1    1  
 77   23   48    0   11    0    0    0    1    0    1    0    3    0   13    2   59    4    0    0    1    0    0    0    0   54   16   24   20    1    1    0    0    0   61   12   60    0    0    0    1   14    1   17   15   55   61    0    0    0   54    8    1    0    0    0    0    0   90    1  
  1   37   58    0    0   39    3   27    0    7    0    0   18    1    0    0    0    4    1    1    0   41   95    1    1    0    0    0    2    0    0   69    2    1    0    0    0    0    0   76    0   86    0    6    0    1    0    0    0   42   14    0   72    1   47    0    0   72    1    0  
  1    1    5    0    5   40   59    1    0    1    0    0    0    2    0    0    0   35    8   24    0    7   33    1    0    0    0    0   62    0   69   50    4    1    0   37    0    0    1    0    0    5    0    2    0    1    0    0    0    5    3    0    0    1   42    0    0    2    1   12  
  0    1   20    5   42    2    0    9    0    0    0    2    1   79    1   84    7   25    1    0   84    0    0    0    0    0    2    7    0   20   19    0    0    0   65   27   82   78    0   43    0    0    1    0   28    0    0    1    0   60   82    3   95    0    0    1    0    0   67    0  
 39    2   98    0    0    0    1   82    1   23   40    0    0   34    0    0    0   86    4    1    0    0    1    9    0    8   41    0   77    3    1    1    1    1    0    1    1   33    5    1    0    0    0   45    0    2    1    0    0    1    1    0   30   14    4    0    0    1    3   80  
  0   25   18   44    0    0    0    0    0    0    0    0   62   29   26   22   10    0    0    0    1    0    0    0    0    0   53   54    0    0   18    0    0    0   68   21    2   17    0    0    1    0    0    0    2    1    0    1    0    0    0    2    1    0    0   12    0    0    0    0  
 20   62   72    0    0    7    0   95    0    0    0   22    0   20   63    0    0   88    1    1    0   46    0   26   27    0    0    0    0    0    2   18    1    1   93   94    0    0    1    3    0    8    0    0   75   23    0    1   99   65   99   79    0   53    0    0    6    1    0    7  
 91   67   25    8   14    1    0    0    1    0    0   21   11    9   19   25    4    1    4    0   41    0    0    0    0    0   37   75    2    9    7    0    0    0   90    4   29   94    0    0   29    0   11    2    0   36    4    1    0    7   29    7   28    0    0   24    0   46    5    0  
  2    1   83    0    0    1    0    8    0    0    0    1    0    1    1    0    0    1    1    0    0    6    0   50    4    0    0    0    0    0   96   44    1    1    1   17    0    0    8    2    0    1    0   13   36    0    0   59   36    1   19   57    0   80    0    0   31   60    0    0  
  1    0    0    0   10    0    0    0    1    0   16    0    0    0    0    0    0   33    0    0    0    0   10    0    0   69    1    0    1    2    0    5    0    0   21    3    2    1    0    0    0    1    0    0    0    0    0    0    0    0    1    0   24    0   15    0    0    0   14   10  
  0   30    1   28    0   97    0    0    0   58    0    2    0    1    8    0    0    0    2    0   51    0    0    0   60    1    0    0    0    0    1    0    1    1   17    0    0    0    0    0    6    0   18    7    1    2    0    0    1    1    0   84    0    0    0   12    1    0    0    0  
  0    2   22    0    0    1   69   30    0    0    0   79    0    5    1    0    0    0    7    0    9    1    0   40    1    0    0    0    0    0    3    0    1   86    1    0    0   12    0    0    0    0    0    2    0   40    0    1    0    1    0    7    0    0    0    2   12    0    1    0  
  1   83    1    0    0   69    0    2    0    0    0   81    4    1    3    0   62    1   24    0   97   27    0   74    3    0   34    0    0    0    1    0    1    1    1   41    4    0    9    6   27   59    3    7    1   72    0    1    4    0   93    1    7    0    0    5    0    0    1    0  
  3    8   45    0    0   18   47   15   37   16   59    0    0    6   72    0   45   14    3    0    0    5    1    1    0    0    4    0    9   41    1   19   79   12   13    1    1    1   45   15    1    1    0    1   13    2   72    0   51    9    0   38   17   81    1    0    0   92    4    1  
 98   20    2    1    0   45    0    0    0    0    0    1   24   48    1    1   29   46   19    0   60    0    0    0    0    0   28   78    0    1    1    0    0    0    3   32   98    1    0    0   31    0   11    1   22    1    0   64   43   20    2    0    2    0    0    5    0    0    1    0  
  1   43    4    1    2    0    0    0    1    0   69    0   15   32   43   34    1    9    0    0    1    0    1    0    0   17    5   25   85   47   56    0    0    0    1   72    1   13    0    0   13   60   52    0    1    0    2   83    0    9   14   65    0    0    0   10    0    0    1   50  
  5   44    0    0    0    0   54   81    0    4    0    0    0    0    0    0    0    1   89   47    0    1    4    1    0    0    0    0    7    0    0    2    2   57    0    0    0    0    1   81    0   16    0    1    0   23    0    0    0    0   52   63    0    0   33    0    0    1    1    1  
 37    0    0    0    0    0   84   46    1   52    2    0    0    0    0    0    0    1    0    1    0    0   26    6    0    3    0    0   72    2   81   82    1    0    0    0    0    0   55   63    0    3    0    0    0    0    1    0    0    0   92    0    0   17    0    0    0   16    0   23  
  0   15   12    1    0    1    0    0    0    0    0    1    1   73   39   13   44    0    1    0    1    0    0    0    0    0    1   19    0    0    1    0    0    0   50    1   26    0    0    0    1    0   14    0   86    0    0    1    3    1    0    1   26    0    0    0    0    0    0    0  
  0   51    0    0    0    2    0    0    0    0    0    8    0    0    0    0    0    0   28    0    0   97   99    0   13    0    0    0    0    0    0    0    0    1    0    0   15    0    0    0    0    0    0   45    0   10    0   73   22    0    0    0    0    0    0    0    0    0    0    0  
  1    0    0    0    0    0    2   26    0    1    0    0    0    0    0    0    0    0   95   26    0    5    3   30    0    0    0    0    0    0    0   30   13    5    0   86   11    0   13   45    0   97    0   68    0   29   18    0    0    0    1    0    1   11    5    1    0    0    0    0  
  9    1    1    0    7    0    0    0   27    0    8    0    3    1   21   21   59   69    0    0    1    0    3    0    0    1    1    1   38    1    1   62    0    0    3    1   34    2    0   63   48    1    0    0   24    0   84    0    0   43    6    1    1    0    1    0    0    0    0   71  
 55    7    9    0    1    0    1    0   29    0   62    0    0    0    0    0    0   57    0    0    7    0   27    0    0    1   44    1    3   93    0    2    0    0    0   11    4    1    0   39    0    3    0    0    0    0    9    0    0    1   20    0   11   20    3    0    0    0   66    0  
